* Problem:    AFIRO-semistandard
* Class:      LP
* Rows:       27
* Columns:    51
* Non-zeros:  102
* Format:     Fixed MPS
*
NAME          AFIRO-se
ROWS
 N  R0000000
 E  R0000001
 E  R0000002
 E  R0000003
 E  R0000004
 E  R0000005
 E  R0000006
 E  R0000007
 E  R0000008
 E  R0000009
 E  R0000010
 E  R0000011
 E  R0000012
 E  R0000013
 E  R0000014
 E  R0000015
 E  R0000016
 E  R0000017
 E  R0000018
 E  R0000019
 E  R0000020
 E  R0000021
 E  R0000022
 E  R0000023
 E  R0000024
 E  R0000025
 E  R0000026
 E  R0000027
COLUMNS
    c0        R0000024         0.301   R0000009             1
    c0        R0000002         -1.06   R0000001            -1
    c1        R0000000          -0.4   R0000010            -1
    c1        R0000001             1
    c2        R0000022            -1   R0000001             1
    c3        R0000026             1   R0000002             1
    c4        R0000025         0.301   R0000011             1
    c4        R0000004         -1.06   R0000003            -1
    c5        R0000025         0.313   R0000012             1
    c5        R0000004         -1.06   R0000003            -1
    c6        R0000025         0.313   R0000013             1
    c6        R0000004         -0.96   R0000003            -1
    c7        R0000025         0.326   R0000014             1
    c7        R0000004         -0.86   R0000003            -1
    c8        R0000021         2.364   R0000011            -1
    c9        R0000021         2.386   R0000012            -1
    c10       R0000021         2.408   R0000013            -1
    c11       R0000021         2.429   R0000014            -1
    c12       R0000000         -0.32   R0000010           1.4
    c12       R0000003             1
    c13       R0000023            -1   R0000003             1
    c14       R0000027             1   R0000004             1
    c15       R0000022         0.109   R0000015             1
    c15       R0000006         -0.43   R0000005            -1
    c16       R0000000          -0.6   R0000016            -1
    c16       R0000005             1
    c17       R0000024            -1   R0000005             1
    c18       R0000021            -1   R0000005             1
    c19       R0000026             1   R0000006             1
    c20       R0000023         0.109   R0000017             1
    c20       R0000008             1   R0000007         -0.43
    c21       R0000023         0.108   R0000018             1
    c21       R0000008             1   R0000007         -0.43
    c22       R0000023         0.108   R0000019             1
    c22       R0000008             1   R0000007         -0.39
    c23       R0000023         0.107   R0000020             1
    c23       R0000008             1   R0000007         -0.37
    c24       R0000021         2.191   R0000017            -1
    c25       R0000021         2.219   R0000018            -1
    c26       R0000021         2.249   R0000019            -1
    c27       R0000021         2.279   R0000020            -1
    c28       R0000000         -0.48   R0000016           1.4
    c28       R0000008            -1
    c29       R0000025            -1   R0000008             1
    c30       R0000027             1   R0000007             1
    c31       R0000000            10   R0000008             1
    c32       R0000009             1
    c33       R0000010             1
    c34       R0000011             1
    c35       R0000012             1
    c36       R0000013             1
    c37       R0000014             1
    c38       R0000015             1
    c39       R0000016             1
    c40       R0000017             1
    c41       R0000018             1
    c42       R0000019             1
    c43       R0000020             1
    c44       R0000021             1
    c45       R0000022             1
    c46       R0000023             1
    c47       R0000024             1
    c48       R0000025             1
    c49       R0000026             1
    c50       R0000027             1
RHS
    RHS1      R0000008            44   R0000009            80
    RHS1      R0000011            80   R0000015           500
    RHS1      R0000017           500   R0000026           310
    RHS1      R0000027           300
ENDATA
